QBPP_HJ+_40_025_20_5
40 106 1862
47 30 14 13 29 1 49 24 19 32 46 32 33 12 24 11 8 36 47 13 27 20 47 31 22 41 16 28 49 36 17 35 13 33 7 33 18 30 7 28
   0   0   0   0  23  45  55   0   0  46   0   0   0   0   0   0   0   7  87   0   0  37   0   0  82   0  88   0  64   0   0   0   0  93   7   0   0  67   0  69
   0   0   0   0   0   0  98   0   0   0   0  34   0   0   0   0  69   0   0   0   0  22   5   0   0   0   0   0   0   0   0   0   0   0   0   0   0   0   0   0
   0   0   0  12   0   0   0   0   0   0   0   0   0   0   0   0   0  18   0   0   0   0   0  51   0   0  73   0   6   0   0  16   0   0  77  72   0  90   0   0
   0   0  12   0   0   0   0  72   0   0   0   0  12   9   0  74   0   0  32   0   0  28  74  61   0   0   0   0   0   0   0   0   0   0   0   0   2   0   0  73
  23   0   0   0   0   0   0   0   0   0   0  99  25   0   0  30  28   0  68   0   0   0   0   0   0   0   0  83   0  18  44  48   0   0   0   0   0   0   0  28
  45   0   0   0   0   0   0   0   0  73  56   0   0   0   0  56   0   0   0  28   0   0   0   0  39   0  30  29  43   0  50  50   0   0  93  87  32   0  38   0
  55  98   0   0   0   0   0   0  46   0   0   0   0   0   0  84  15  89   0   0   0   0  54   0   0   0   0   0   0  57   0   0   0   0   0   0   0   0   0   0
   0   0   0  72   0   0   0   0   0   0   0   0   0  74  44  37   0  37   0  94  93   0   0  37   0   0   0  88  34   0   0   0   0   0   0   0   0  36  12   0
   0   0   0   0   0   0  46   0   0   0   0   0   0   0  85  65   0   0   0   0   0   0   8   0   0   0   0   0   0   0   0   0   0  12  38   0   0   3   0   4
  46   0   0   0   0  73   0   0   0   0   0   0   0   0   0   0  12   0  35   0   0   0  81   0   0   0   0   0   0  81   0   0   0   0   0   0  63  86   0   4
   0   0   0   0   0  56   0   0   0   0   0   0   0   0   7   0   0   0   0   0  73   0  32   0   0   0   0   0   0  64   0  71   0   0   0  83   0   0   0  45
   0  34   0   0  99   0   0   0   0   0   0   0   0   0  82   0   0   0   0   0   0   0   0   0   0   0   0   0  41   0   0   0   0   0   0   0   0   0   0  93
   0   0   0  12  25   0   0   0   0   0   0   0   0   0   0   0   0  32  43   0   0   0   7  16  36   0   0   0   0   0   4   0   0  71   0  70   0   0   0   0
   0   0   0   9   0   0   0  74   0   0   0   0   0   0   0   0   0   0   0   0  85  91   0   8  28  49   0   0   0  20  99   0   0   0  16   0   0   0   0   0
   0   0   0   0   0   0   0  44  85   0   7  82   0   0   0   0   0   8   0  30  59  37   0   0   0   0   0   0   0  84   0   0   0   0  61  25   0   0   0   0
   0   0   0  74  30  56  84  37  65   0   0   0   0   0   0   0   0   0   0  41   5   0   0   0   0   0   0  52  19   0   0   0   0   0   0   0   0   0   0  46
   0  69   0   0  28   0  15   0   0  12   0   0   0   0   0   0   0   0   0   0   0  64   0  63  41   0   0   0   0   0   0   0   0   0   0  49   0   0  87   0
   7   0  18   0   0   0  89  37   0   0   0   0  32   0   8   0   0   0   0   0   0   0  96   0   0   0   0   0   0   0   0   0  49   0  77   0   0   0   0  22
  87   0   0  32  68   0   0   0   0  35   0   0  43   0   0   0   0   0   0  97   0   0   0   0   0  30   0   0   0   0   0   0  32   0   0   0   0  80   0   0
   0   0   0   0   0  28   0  94   0   0   0   0   0   0  30  41   0   0  97   0   0   0   0  91   0   0   0   0   0   0  63  61  48   0   0   0   0   0  46   0
   0   0   0   0   0   0   0  93   0   0  73   0   0  85  59   5   0   0   0   0   0   0   0   0   0   0  51   0  78   0   0   0   0   0   0  99   0   0   0   0
  37  22   0  28   0   0   0   0   0   0   0   0   0  91  37   0  64   0   0   0   0   0   0   0   0   0   0   0   0  44  18  58   0   0   0  43   0   0   0   0
   0   5   0  74   0   0  54   0   8  81  32   0   7   0   0   0   0  96   0   0   0   0   0   0  93   0   0  65   0   5   0   0   0   0  60   0  30   0  31   0
   0   0  51  61   0   0   0  37   0   0   0   0  16   8   0   0  63   0   0  91   0   0   0   0   4   0   0   0   0   0   0   0   0   0   0   0  87   0  81   0
  82   0   0   0   0  39   0   0   0   0   0   0  36  28   0   0  41   0   0   0   0   0  93   4   0  63   0  60   0  15  52   0   0   0   0   0  24   0  28   0
   0   0   0   0   0   0   0   0   0   0   0   0   0  49   0   0   0   0  30   0   0   0   0   0  63   0   0   0   0   0  77   0  39   0   0  77   0   0   0   0
  88   0  73   0   0  30   0   0   0   0   0   0   0   0   0   0   0   0   0   0  51   0   0   0   0   0   0  15  23   0   0   0   0   0  79   0   0   0  47  30
   0   0   0   0  83  29   0  88   0   0   0   0   0   0   0  52   0   0   0   0   0   0  65   0  60   0  15   0   0  72   0   0   0  60   0   0   0   0   0   4
  64   0   6   0   0  43   0  34   0   0   0  41   0   0   0  19   0   0   0   0  78   0   0   0   0   0  23   0   0   0   0   0   0   0   0   0   0   0   0   0
   0   0   0   0  18   0  57   0   0  81  64   0   0  20  84   0   0   0   0   0   0  44   5   0  15   0   0  72   0   0   0   0   0   0   0  53  46   0   0   0
   0   0   0   0  44  50   0   0   0   0   0   0   4  99   0   0   0   0   0  63   0  18   0   0  52  77   0   0   0   0   0   0   0   0   0   0   0   0   0   0
   0   0  16   0  48  50   0   0   0   0  71   0   0   0   0   0   0   0   0  61   0  58   0   0   0   0   0   0   0   0   0   0   0   0   5   0  65   0   0   0
   0   0   0   0   0   0   0   0   0   0   0   0   0   0   0   0   0  49  32  48   0   0   0   0   0  39   0   0   0   0   0   0   0   0   0   0   5   0   0  55
  93   0   0   0   0   0   0   0  12   0   0   0  71   0   0   0   0   0   0   0   0   0   0   0   0   0   0  60   0   0   0   0   0   0   0   0  71  14   1   0
   7   0  77   0   0  93   0   0  38   0   0   0   0  16  61   0   0  77   0   0   0   0  60   0   0   0  79   0   0   0   0   5   0   0   0   0   0   0   0   0
   0   0  72   0   0  87   0   0   0   0  83   0  70   0  25   0  49   0   0   0  99  43   0   0   0  77   0   0   0  53   0   0   0   0   0   0   0   0  18   0
   0   0   0   2   0  32   0   0   0  63   0   0   0   0   0   0   0   0   0   0   0   0  30  87  24   0   0   0   0  46   0  65   5  71   0   0   0   0   0   0
  67   0  90   0   0   0   0  36   3  86   0   0   0   0   0   0   0   0  80   0   0   0   0   0   0   0   0   0   0   0   0   0   0  14   0   0   0   0   0   0
   0   0   0   0   0  38   0  12   0   0   0   0   0   0   0   0  87   0   0  46   0   0  31  81  28   0  47   0   0   0   0   0   0   1   0  18   0   0   0   0
  69   0   0  73  28   0   0   0   4   4  45  93   0   0   0  46   0  22   0   0   0   0   0   0   0   0  30   4   0   0   0   0  55   0   0   0   0   0   0   0
